solution status: gap limit reached
objective value:                          45604.29811
y#1                                                 1 	(obj:5700)
y#2                                                 1 	(obj:5700)
y#3                                                 1 	(obj:5700)
y#4                                                 1 	(obj:5700)
y#5                                                 1 	(obj:5700)
y#6                                                 1 	(obj:5700)
y#9                                                 1 	(obj:5700)
y#10                                                1 	(obj:5700)
x#1#10                                              1 	(obj:0.04046)
x#2#4                                               1 	(obj:0.01122)
x#3#3                                               1 	(obj:0.04811)
x#4#5                                               1 	(obj:0.0085)
x#5#1                                               1 	(obj:0.03689)
x#6#1                                               1 	(obj:0.01972)
x#7#1                                               1 	(obj:0.09367)
x#8#6                                               1 	(obj:0.04437)
x#9#1                                               1 	(obj:0.08925)
x#10#1                                              1 	(obj:0.10778)
x#11#5                                              1 	(obj:0.03111)
x#12#3                                              1 	(obj:0.03434)
x#13#3                                              1 	(obj:0.0153)
x#14#6                                              1 	(obj:0.01921)
x#15#10                                             1 	(obj:0.04403)
x#16#2                                              1 	(obj:0.00289)
x#17#1                                              1 	(obj:0.02465)
x#18#5                                              1 	(obj:0.03672)
x#19#2                                              1 	(obj:0.03723)
x#20#2                                              1 	(obj:0.0119)
x#21#6                                              1 	(obj:0.06698)
x#22#4                                              1 	(obj:0.06035)
x#23#6                                              1 	(obj:0.068)
x#24#10                                             1 	(obj:0.05406)
x#25#10                                             1 	(obj:0.06239)
x#26#2                                              1 	(obj:0.01581)
x#27#6                                              1 	(obj:0.03213)
x#28#6                                              1 	(obj:0.12886)
x#29#9                                              1 	(obj:0.09044)
x#30#4                                              1 	(obj:0.12665)
x#31#2                                              1 	(obj:0.0085)
x#32#3                                              1 	(obj:0.0663)
x#33#3                                              1 	(obj:0.01428)
x#34#4                                              1 	(obj:0.02363)
x#35#9                                              1 	(obj:0.03774)
x#36#3                                              1 	(obj:0.05933)
x#37#10                                             1 	(obj:0.01428)
x#38#3                                              1 	(obj:0.08874)
x#39#6                                              1 	(obj:0.02465)
x#40#9                                              1 	(obj:0.04097)
x#41#4                                              1 	(obj:0.04488)
x#42#1                                              1 	(obj:0.01207)
x#43#5                                              1 	(obj:0.07055)
x#44#9                                              1 	(obj:0.0357)
x#45#10                                             1 	(obj:0.06562)
x#46#2                                              1 	(obj:0.13022)
x#47#1                                              1 	(obj:0.02754)
x#48#9                                              1 	(obj:0.04522)
x#49#9                                              1 	(obj:0.01904)
x#50#4                                              1 	(obj:0.03553)
x#51#2                                              1 	(obj:0.08449)
x#52#3                                              1 	(obj:0.04998)
x#53#9                                              1 	(obj:0.05083)
x#54#4                                              1 	(obj:0.03859)
x#55#10                                             1 	(obj:0.02652)
x#56#4                                              1 	(obj:0.01921)
x#57#5                                              1 	(obj:0.08092)
x#58#1                                              1 	(obj:0.02006)
x#59#5                                              1 	(obj:0.01088)
x#60#10                                             1 	(obj:0.03706)
x#61#1                                              1 	(obj:0.01751)
x#62#6                                              1 	(obj:0.07633)
x#63#6                                              1 	(obj:0.06188)
x#64#5                                              1 	(obj:0.01921)
x#65#3                                              1 	(obj:0.07055)
x#66#9                                              1 	(obj:0.1105)
x#67#3                                              1 	(obj:0.05287)
x#68#2                                              1 	(obj:0.04845)
x#69#2                                              1 	(obj:0.03876)
x#70#5                                              1 	(obj:0.06715)
x#71#9                                              1 	(obj:0.08772)
x#72#9                                              1 	(obj:0.02499)
x#73#4                                              1 	(obj:0.03451)
x#74#10                                             1 	(obj:0.03621)
x#75#5                                              1 	(obj:0.02006)
x#76#10                                             1 	(obj:0.08823)
x#77#9                                              1 	(obj:0.05474)
x#78#4                                              1 	(obj:0.05355)
x#79#5                                              1 	(obj:0.0306)
x#80#5                                              1 	(obj:0.01564)
x#81#4                                              1 	(obj:0.04607)
x#82#2                                              1 	(obj:0.0442)
x#83#1                                              1 	(obj:0.068)
x#84#3                                              1 	(obj:0.04284)
x#85#5                                              1 	(obj:0.06001)
x#86#10                                             1 	(obj:0.07242)
x#87#1                                              1 	(obj:0.04709)
x#88#2                                              1 	(obj:0.09316)
x#89#6                                              1 	(obj:0.05508)
x#90#6                                              1 	(obj:0.01343)
